
  22   10
  10   10   10   10   10   10   10   10   10   10

   0   0   0   0   0   0   0   0   0   0   0   3 2 8 21 
   5  10  10  10  10  10  10  10  10  10  10   1 3 
   3  10  10  10  10  10  10  10  10  10  10   1 4 
   5  10  10  10  10  10  10  10  10  10  10   1 5 
  10  10  10  10  10  10  10  10  10  10  10   1 6 
   3  10  10  10  10  10  10  10  10  10  10   2 20 7 
   9  10  10  10  10  10  10  10  10  10  10   2 19 9 
   3  10  10  10  10  10  10  10  10  10  10   2 19 11 
   7  10  10  10  10  10  10  10  10  10  10   1 10 
   8  10  10  10  10  10  10  10  10  10  10   1 11 
   7  10  10  10  10  10  10  10  10  10  10   2 18 12 
   1  10  10  10  10  10  10  10  10  10  10   2 17 13 
   8  10  10  10  10  10  10  10  10  10  10   1 14 
   1  10  10  10  10  10  10  10  10  10  10   1 15 
   6  10  10  10  10  10  10  10  10  10  10   1 16 
   3  10  10  10  10  10  10  10  10  10  10   1 22
   5  10  10  10  10  10  10  10  10  10  10   1 22
   6  10  10  10  10  10  10  10  10  10  10   1 22
  10  10  10  10  10  10  10  10  10  10  10   1 22
  10  10  10  10  10  10  10  10  10  10  10   1 22
   4  10  10  10  10  10  10  10  10  10  10   1 22
   0   0   0   0   0   0   0   0   0   0   0   0 
